22	3

10	10	10	

0	0	0	0	5	2	3	4	17	18	
2	2	3	6	2	5	6	
4	1	5	0	3	7	8	9	
3	4	2	3	2	10	11	
2	2	1	5	1	13	
3	4	3	1	1	12	
1	3	2	7	1	12	
2	6	0	3	2	14	20	
4	5	3	6	2	15	16	
3	3	8	3	1	22	
1	2	4	0	3	13	15	16	
1	1	2	1	1	19	
5	6	1	5	1	19	
2	7	5	2	1	22	
3	4	4	3	1	22	
3	0	5	7	1	21	
0	0	0	0	1	19	
0	0	0	0	1	21	
4	1	3	0	1	22	
3	4	2	2	1	22	
2	2	1	2	1	22	
0	0	0	0	0	
